93 8 86 3 2 61 42 4 82 59 6 36 41 84 10 34 90 16 69 48 52 50 55 62 47 24 0 71 19 26 80 77 68 88 97 94 1 40 9 33 54 25 87 46 75 66 7 29 92 39 58 14 35 57 15 31 18 73 5 79 72 98 96 95 44 23 67 45 70 64 81 91 53 13 89 43 28 51 32 83 37 11 38 85 63 56 78 74 76 30 20 60 21 99 17 27 22 12 49 65 

